Timesteps: 1
s UNSATISFIABLE
real 0.29
user 0.03
sys 0.00
Timesteps: 2
s UNSATISFIABLE
real 0.29
user 0.08
sys 0.00
Timesteps: 3
s UNSATISFIABLE
real 0.28
user 0.14
sys 0.01
Timesteps: 4
s UNSATISFIABLE
real 0.77
user 0.38
sys 0.02
Timesteps: 5
s UNSATISFIABLE
real 1.00
user 0.52
sys 0.02
Timesteps: 6
s UNSATISFIABLE
real 1.26
user 0.98
sys 0.03
Timesteps: 7
s UNSATISFIABLE
real 5.50
user 4.77
sys 0.04
Timesteps: 8
s UNSATISFIABLE
real 11.76
user 10.89
sys 0.03
Timesteps: 9
s UNSATISFIABLE
real 22.49
user 21.45
sys 0.06
Timesteps: 10
s UNSATISFIABLE
real 21.49
user 20.35
sys 0.07
Timesteps: 11
s UNSATISFIABLE
real 35.58
user 34.30
sys 0.09
Timesteps: 12
s UNSATISFIABLE
real 52.85
user 51.46
sys 0.12
Timesteps: 13
s UNSATISFIABLE
real 137.30
user 136.14
sys 0.15
Timesteps: 14
s UNSATISFIABLE
real 345.93
user 343.86
sys 0.31
Timesteps: 15
s UNSATISFIABLE
real 957.00
user 952.24
sys 0.65
Timesteps: 16
